c Result of efficient AIG-to-CNF conversion using package CNF
p cnf 281 962
2 -45 115 0
2 3 -115 0
2 -3 45 0
-2 -3 -45 -115 0
-2 3 45 115 0
3 249 -44 0
3 -185 -4 0
3 -185 249 0
3 -185 -44 0
3 249 -4 0
-3 185 -249 0
-3 185 4 44 0
-3 -249 4 44 0
4 187 -5 43 0
4 -251 -5 43 0
-4 -43 0
-4 5 0
-4 -187 251 0
-5 -187 6 42 0
-5 251 6 42 0
5 -42 0
5 -6 0
5 187 -251 0
6 -40 41 0
6 -7 39 41 0
-6 -41 0
-6 7 40 0
-6 -39 40 0
-7 -37 38 0
-7 8 36 38 0
7 -38 0
7 -8 37 0
7 -36 37 0
8 -34 35 0
8 -9 33 35 0
-8 -35 0
-8 9 34 0
-8 -33 34 0
-9 -31 32 0
-9 10 30 32 0
9 -32 0
9 -10 31 0
9 -30 31 0
10 -28 29 0
10 -11 27 29 0
-10 -29 0
-10 11 28 0
-10 -27 28 0
-11 -25 26 0
-11 12 24 26 0
11 -26 0
11 -12 25 0
11 -24 25 0
12 -22 23 0
12 13 -14 23 0
-12 -23 0
-12 14 22 0
-12 -13 22 0
-13 208 209 0
-13 -272 -273 0
-13 208 -273 0
-13 209 -272 0
13 -208 272 0
13 -209 273 0
-14 15 -21 0
-14 15 16 20 0
14 -15 0
14 -16 21 0
14 -20 21 0
-15 -210 273 0
-15 -209 274 0
-15 -209 -210 0
-15 273 274 0
15 210 -274 0
15 209 -273 0
16 213 -277 19 0
16 -277 -17 19 0
16 213 -17 19 0
-16 277 17 0
-16 -213 277 0
-16 -19 0
-16 -213 17 0
17 214 -278 0
17 -278 -18 0
17 214 -18 0
-17 278 18 0
-17 -214 278 0
-17 -214 18 0
18 215 -279 0
18 216 -279 -280 0
18 215 216 -280 0
-18 -215 -216 0
-18 -216 279 0
-18 -215 279 0
-18 279 280 0
-18 -215 280 0
19 -212 276 0
-19 212 0
-19 -276 0
-20 -212 275 0
-20 -211 276 0
-20 -211 -212 0
-20 275 276 0
20 212 -276 0
20 211 -275 0
-21 210 211 0
-21 -274 -275 0
-21 210 -275 0
-21 211 -274 0
21 -210 274 0
21 -211 275 0
-22 -208 271 0
-22 -207 272 0
-22 -207 -208 0
-22 271 272 0
22 208 -272 0
22 207 -271 0
-23 206 207 0
-23 -270 -271 0
-23 206 -271 0
-23 207 -270 0
23 -206 270 0
23 -207 271 0
-24 -206 269 0
-24 -205 270 0
-24 -205 -206 0
-24 269 270 0
24 206 -270 0
24 205 -269 0
-25 204 205 0
-25 -268 -269 0
-25 204 -269 0
-25 205 -268 0
25 -204 268 0
25 -205 269 0
-26 -204 267 0
-26 -203 268 0
-26 -203 -204 0
-26 267 268 0
26 204 -268 0
26 203 -267 0
-27 202 203 0
-27 -266 -267 0
-27 202 -267 0
-27 203 -266 0
27 -202 266 0
27 -203 267 0
-28 -202 265 0
-28 -201 266 0
-28 -201 -202 0
-28 265 266 0
28 202 -266 0
28 201 -265 0
-29 200 201 0
-29 -264 -265 0
-29 200 -265 0
-29 201 -264 0
29 -200 264 0
29 -201 265 0
-30 -200 263 0
-30 -199 264 0
-30 -199 -200 0
-30 263 264 0
30 200 -264 0
30 199 -263 0
-31 198 199 0
-31 -262 -263 0
-31 198 -263 0
-31 199 -262 0
31 -198 262 0
31 -199 263 0
-32 -198 261 0
-32 -197 262 0
-32 -197 -198 0
-32 261 262 0
32 198 -262 0
32 197 -261 0
-33 196 197 0
-33 -260 -261 0
-33 196 -261 0
-33 197 -260 0
33 -196 260 0
33 -197 261 0
-34 -196 259 0
-34 -195 260 0
-34 -195 -196 0
-34 259 260 0
34 196 -260 0
34 195 -259 0
-35 194 195 0
-35 -258 -259 0
-35 194 -259 0
-35 195 -258 0
35 -194 258 0
35 -195 259 0
-36 -194 257 0
-36 -193 258 0
-36 -193 -194 0
-36 257 258 0
36 194 -258 0
36 193 -257 0
-37 192 193 0
-37 -256 -257 0
-37 192 -257 0
-37 193 -256 0
37 -192 256 0
37 -193 257 0
-38 -192 255 0
-38 -191 256 0
-38 -191 -192 0
-38 255 256 0
38 192 -256 0
38 191 -255 0
-39 190 191 0
-39 -254 -255 0
-39 190 -255 0
-39 191 -254 0
39 -190 254 0
39 -191 255 0
-40 -190 253 0
-40 -189 254 0
-40 -189 -190 0
-40 253 254 0
40 190 -254 0
40 189 -253 0
-41 188 189 0
-41 -252 -253 0
-41 188 -253 0
-41 189 -252 0
41 -188 252 0
41 -189 253 0
42 188 -252 0
-42 -188 0
-42 252 0
43 -186 250 0
-43 186 0
-43 -250 0
44 186 -250 0
-44 -186 0
-44 250 0
45 185 46 -79 0
45 -217 46 -79 0
-45 79 0
-45 -46 0
-45 -185 217 0
46 -185 47 -48 0
46 217 47 -48 0
-46 48 0
-46 -47 0
-46 185 -217 0
47 -186 218 0
-47 186 0
-47 -218 0
-48 -187 219 49 0
-48 -187 49 50 0
-48 219 49 50 0
48 187 -50 0
48 -219 -50 0
48 -49 0
48 187 -219 0
-49 -186 -218 0
-49 186 218 0
49 186 -218 0
49 -186 218 0
50 188 -220 0
50 -220 -51 0
50 188 -51 0
-50 220 51 0
-50 -188 220 0
-50 -188 51 0
51 189 -221 0
51 -221 -52 0
51 189 -52 0
-51 221 52 0
-51 -189 221 0
-51 -189 52 0
52 190 -222 0
52 -222 -53 0
52 190 -53 0
-52 222 53 0
-52 -190 222 0
-52 -190 53 0
53 191 -223 0
53 -223 -54 0
53 191 -54 0
-53 223 54 0
-53 -191 223 0
-53 -191 54 0
54 192 -224 0
54 -224 -55 0
54 192 -55 0
-54 224 55 0
-54 -192 224 0
-54 -192 55 0
55 193 -225 0
55 -225 -56 0
55 193 -56 0
-55 225 56 0
-55 -193 225 0
-55 -193 56 0
56 194 -226 0
56 -226 -57 0
56 194 -57 0
-56 226 57 0
-56 -194 226 0
-56 -194 57 0
57 195 -227 0
57 -227 -58 0
57 195 -58 0
-57 227 58 0
-57 -195 227 0
-57 -195 58 0
58 196 -228 0
58 -228 -59 0
58 196 -59 0
-58 228 59 0
-58 -196 228 0
-58 -196 59 0
59 197 -229 0
59 -229 -60 0
59 197 -60 0
-59 229 60 0
-59 -197 229 0
-59 -197 60 0
60 198 -230 0
60 -230 -61 0
60 198 -61 0
-60 230 61 0
-60 -198 230 0
-60 -198 61 0
61 199 -231 0
61 -231 -62 0
61 199 -62 0
-61 231 62 0
-61 -199 231 0
-61 -199 62 0
62 200 -232 0
62 -232 -63 0
62 200 -63 0
-62 232 63 0
-62 -200 232 0
-62 -200 63 0
63 201 -233 0
63 -233 -64 0
63 201 -64 0
-63 233 64 0
-63 -201 233 0
-63 -201 64 0
64 202 -234 0
64 -234 -65 0
64 202 -65 0
-64 234 65 0
-64 -202 234 0
-64 -202 65 0
65 203 -235 0
65 -235 -66 0
65 203 -66 0
-65 235 66 0
-65 -203 235 0
-65 -203 66 0
66 204 -236 0
66 -236 -67 0
66 204 -67 0
-66 236 67 0
-66 -204 236 0
-66 -204 67 0
67 205 -237 0
67 -237 -68 0
67 205 -68 0
-67 237 68 0
-67 -205 237 0
-67 -205 68 0
68 206 -238 0
68 -238 -69 0
68 206 -69 0
-68 238 69 0
-68 -206 238 0
-68 -206 69 0
69 207 -239 0
69 -239 -70 0
69 207 -70 0
-69 239 70 0
-69 -207 239 0
-69 -207 70 0
70 208 -240 0
70 -240 -71 0
70 208 -71 0
-70 240 71 0
-70 -208 240 0
-70 -208 71 0
71 209 -241 0
71 -241 -72 0
71 209 -72 0
-71 241 72 0
-71 -209 241 0
-71 -209 72 0
72 210 -242 0
72 -242 -73 0
72 210 -73 0
-72 242 73 0
-72 -210 242 0
-72 -210 73 0
73 211 -243 0
73 -243 -74 0
73 211 -74 0
-73 243 74 0
-73 -211 243 0
-73 -211 74 0
74 212 -244 0
74 -244 -75 0
74 212 -75 0
-74 244 75 0
-74 -212 244 0
-74 -212 75 0
75 213 -245 0
75 -245 -76 0
75 213 -76 0
-75 245 76 0
-75 -213 245 0
-75 -213 76 0
76 214 -246 0
76 214 77 -78 0
76 -246 77 -78 0
-76 246 78 0
-76 -214 -77 0
-76 -214 246 0
-76 -214 78 0
-76 246 -77 0
77 -215 247 0
-77 215 0
-77 -247 0
-78 -215 -247 248 0
-78 215 247 248 0
-78 215 -216 247 0
-78 -215 -216 -247 0
78 -215 247 0
78 215 -247 0
78 216 -248 0
-79 80 81 86 94 0
79 -94 0
79 -80 0
79 -86 0
79 -81 0
-80 -195 -227 0
-80 195 227 0
80 195 -227 0
80 -195 227 0
-81 82 83 84 85 0
81 -85 0
81 -82 0
81 -84 0
81 -83 0
-82 -193 -225 0
-82 193 225 0
82 193 -225 0
82 -193 225 0
-83 -194 -226 0
-83 194 226 0
83 194 -226 0
83 -194 226 0
-84 -199 -231 0
-84 199 231 0
84 199 -231 0
84 -199 231 0
-85 -200 -232 0
-85 200 232 0
85 200 -232 0
85 -200 232 0
-86 187 219 87 89 0
-86 -187 -219 87 89 0
86 -89 0
86 -187 219 0
86 -87 0
86 187 -219 0
-87 -202 -234 88 0
-87 202 234 88 0
87 -88 0
87 -202 234 0
87 202 -234 0
-88 -201 -233 0
-88 201 233 0
88 201 -233 0
88 -201 233 0
-89 216 90 91 0
-89 -248 90 91 0
89 -91 0
89 -90 0
89 -216 248 0
-90 -188 -220 0
-90 188 220 0
90 188 -220 0
90 -188 220 0
-91 207 239 92 93 0
-91 -207 -239 92 93 0
91 -93 0
91 -207 239 0
91 -92 0
91 207 -239 0
-92 -205 -237 0
-92 205 237 0
92 205 -237 0
92 -205 237 0
-93 -206 -238 0
-93 206 238 0
93 206 -238 0
93 -206 238 0
-94 95 98 101 104 0
94 -104 0
94 -95 0
94 -101 0
94 -98 0
-95 212 244 96 97 0
-95 -212 -244 96 97 0
95 -97 0
95 -212 244 0
95 -96 0
95 212 -244 0
-96 -210 -242 0
-96 210 242 0
96 210 -242 0
96 -210 242 0
-97 -211 -243 0
-97 211 243 0
97 211 -243 0
97 -211 243 0
-98 196 228 99 100 0
-98 -196 -228 99 100 0
98 -100 0
98 -196 228 0
98 -99 0
98 196 -228 0
-99 -189 -221 0
-99 189 221 0
99 189 -221 0
99 -189 221 0
-100 -190 -222 0
-100 190 222 0
100 190 -222 0
100 -190 222 0
-101 49 102 103 78 0
101 -78 0
101 -49 0
101 -103 0
101 -102 0
-102 -191 -223 0
-102 191 223 0
102 191 -223 0
102 -191 223 0
-103 -192 -224 0
-103 192 224 0
103 192 -224 0
103 -192 224 0
-104 105 106 107 112 0
104 -112 0
104 -105 0
104 -107 0
104 -106 0
-105 -208 -240 0
-105 208 240 0
105 208 -240 0
105 -208 240 0
-106 -213 -245 0
-106 213 245 0
106 213 -245 0
106 -213 245 0
-107 108 109 110 111 0
107 -111 0
107 -108 0
107 -110 0
107 -109 0
-108 -197 -229 0
-108 197 229 0
108 197 -229 0
108 -197 229 0
-109 -198 -230 0
-109 198 230 0
109 198 -230 0
109 -198 230 0
-110 -203 -235 0
-110 203 235 0
110 203 -235 0
110 -203 235 0
-111 -204 -236 0
-111 204 236 0
111 204 -236 0
111 -204 236 0
-112 185 217 113 114 0
-112 -185 -217 113 114 0
112 -114 0
112 -185 217 0
112 -113 0
112 185 -217 0
-113 -209 -241 0
-113 209 241 0
113 209 -241 0
113 -209 241 0
-114 -214 -246 0
-114 214 246 0
114 214 -246 0
114 -214 246 0
115 217 116 -149 0
115 -249 116 -149 0
-115 149 0
-115 -116 0
-115 -217 249 0
116 -217 117 -118 0
116 249 117 -118 0
-116 118 0
-116 -117 0
-116 217 -249 0
117 -218 250 0
-117 218 0
-117 -250 0
-118 -219 251 119 0
-118 -219 119 120 0
-118 251 119 120 0
118 219 -120 0
118 -251 -120 0
118 -119 0
118 219 -251 0
-119 -218 -250 0
-119 218 250 0
119 218 -250 0
119 -218 250 0
120 220 -252 0
120 -252 -121 0
120 220 -121 0
-120 252 121 0
-120 -220 252 0
-120 -220 121 0
121 221 -253 0
121 -253 -122 0
121 221 -122 0
-121 253 122 0
-121 -221 253 0
-121 -221 122 0
122 222 -254 0
122 -254 -123 0
122 222 -123 0
-122 254 123 0
-122 -222 254 0
-122 -222 123 0
123 223 -255 0
123 -255 -124 0
123 223 -124 0
-123 255 124 0
-123 -223 255 0
-123 -223 124 0
124 224 -256 0
124 -256 -125 0
124 224 -125 0
-124 256 125 0
-124 -224 256 0
-124 -224 125 0
125 225 -257 0
125 -257 -126 0
125 225 -126 0
-125 257 126 0
-125 -225 257 0
-125 -225 126 0
126 226 -258 0
126 -258 -127 0
126 226 -127 0
-126 258 127 0
-126 -226 258 0
-126 -226 127 0
127 227 -259 0
127 -259 -128 0
127 227 -128 0
-127 259 128 0
-127 -227 259 0
-127 -227 128 0
128 228 -260 0
128 -260 -129 0
128 228 -129 0
-128 260 129 0
-128 -228 260 0
-128 -228 129 0
129 229 -261 0
129 -261 -130 0
129 229 -130 0
-129 261 130 0
-129 -229 261 0
-129 -229 130 0
130 230 -262 0
130 -262 -131 0
130 230 -131 0
-130 262 131 0
-130 -230 262 0
-130 -230 131 0
131 231 -263 0
131 -263 -132 0
131 231 -132 0
-131 263 132 0
-131 -231 263 0
-131 -231 132 0
132 232 -264 0
132 -264 -133 0
132 232 -133 0
-132 264 133 0
-132 -232 264 0
-132 -232 133 0
133 233 -265 0
133 -265 -134 0
133 233 -134 0
-133 265 134 0
-133 -233 265 0
-133 -233 134 0
134 234 -266 0
134 -266 -135 0
134 234 -135 0
-134 266 135 0
-134 -234 266 0
-134 -234 135 0
135 235 -267 0
135 -267 -136 0
135 235 -136 0
-135 267 136 0
-135 -235 267 0
-135 -235 136 0
136 236 -268 0
136 -268 -137 0
136 236 -137 0
-136 268 137 0
-136 -236 268 0
-136 -236 137 0
137 237 -269 0
137 -269 -138 0
137 237 -138 0
-137 269 138 0
-137 -237 269 0
-137 -237 138 0
138 238 -270 0
138 -270 -139 0
138 238 -139 0
-138 270 139 0
-138 -238 270 0
-138 -238 139 0
139 239 -271 0
139 -271 -140 0
139 239 -140 0
-139 271 140 0
-139 -239 271 0
-139 -239 140 0
140 240 -272 0
140 -272 -141 0
140 240 -141 0
-140 272 141 0
-140 -240 272 0
-140 -240 141 0
141 241 -273 0
141 -273 -142 0
141 241 -142 0
-141 273 142 0
-141 -241 273 0
-141 -241 142 0
142 242 -274 0
142 -274 -143 0
142 242 -143 0
-142 274 143 0
-142 -242 274 0
-142 -242 143 0
143 243 -275 0
143 -275 -144 0
143 243 -144 0
-143 275 144 0
-143 -243 275 0
-143 -243 144 0
144 244 -276 0
144 -276 -145 0
144 244 -145 0
-144 276 145 0
-144 -244 276 0
-144 -244 145 0
145 245 -277 0
145 -277 -146 0
145 245 -146 0
-145 277 146 0
-145 -245 277 0
-145 -245 146 0
146 246 -278 0
146 246 147 -148 0
146 -278 147 -148 0
-146 278 148 0
-146 -246 -147 0
-146 -246 278 0
-146 -246 148 0
-146 278 -147 0
147 -247 279 0
-147 247 0
-147 -279 0
-148 -247 -279 280 0
-148 247 279 280 0
-148 247 -248 279 0
-148 -247 -248 -279 0
148 -247 279 0
148 247 -279 0
148 248 -280 0
-149 150 151 156 164 0
149 -164 0
149 -150 0
149 -156 0
149 -151 0
-150 -227 -259 0
-150 227 259 0
150 227 -259 0
150 -227 259 0
-151 152 153 154 155 0
151 -155 0
151 -152 0
151 -154 0
151 -153 0
-152 -225 -257 0
-152 225 257 0
152 225 -257 0
152 -225 257 0
-153 -226 -258 0
-153 226 258 0
153 226 -258 0
153 -226 258 0
-154 -231 -263 0
-154 231 263 0
154 231 -263 0
154 -231 263 0
-155 -232 -264 0
-155 232 264 0
155 232 -264 0
155 -232 264 0
-156 219 251 157 159 0
-156 -219 -251 157 159 0
156 -159 0
156 -219 251 0
156 -157 0
156 219 -251 0
-157 -234 -266 158 0
-157 234 266 158 0
157 -158 0
157 -234 266 0
157 234 -266 0
-158 -233 -265 0
-158 233 265 0
158 233 -265 0
158 -233 265 0
-159 248 160 161 0
-159 -280 160 161 0
159 -161 0
159 -160 0
159 -248 280 0
-160 -220 -252 0
-160 220 252 0
160 220 -252 0
160 -220 252 0
-161 239 271 162 163 0
-161 -239 -271 162 163 0
161 -163 0
161 -239 271 0
161 -162 0
161 239 -271 0
-162 -237 -269 0
-162 237 269 0
162 237 -269 0
162 -237 269 0
-163 -238 -270 0
-163 238 270 0
163 238 -270 0
163 -238 270 0
-164 165 168 171 174 0
164 -174 0
164 -165 0
164 -171 0
164 -168 0
-165 244 276 166 167 0
-165 -244 -276 166 167 0
165 -167 0
165 -244 276 0
165 -166 0
165 244 -276 0
-166 -242 -274 0
-166 242 274 0
166 242 -274 0
166 -242 274 0
-167 -243 -275 0
-167 243 275 0
167 243 -275 0
167 -243 275 0
-168 228 260 169 170 0
-168 -228 -260 169 170 0
168 -170 0
168 -228 260 0
168 -169 0
168 228 -260 0
-169 -221 -253 0
-169 221 253 0
169 221 -253 0
169 -221 253 0
-170 -222 -254 0
-170 222 254 0
170 222 -254 0
170 -222 254 0
-171 119 172 173 148 0
171 -148 0
171 -119 0
171 -173 0
171 -172 0
-172 -223 -255 0
-172 223 255 0
172 223 -255 0
172 -223 255 0
-173 -224 -256 0
-173 224 256 0
173 224 -256 0
173 -224 256 0
-174 175 176 177 182 0
174 -182 0
174 -175 0
174 -177 0
174 -176 0
-175 -240 -272 0
-175 240 272 0
175 240 -272 0
175 -240 272 0
-176 -245 -277 0
-176 245 277 0
176 245 -277 0
176 -245 277 0
-177 178 179 180 181 0
177 -181 0
177 -178 0
177 -180 0
177 -179 0
-178 -229 -261 0
-178 229 261 0
178 229 -261 0
178 -229 261 0
-179 -230 -262 0
-179 230 262 0
179 230 -262 0
179 -230 262 0
-180 -235 -267 0
-180 235 267 0
180 235 -267 0
180 -235 267 0
-181 -236 -268 0
-181 236 268 0
181 236 -268 0
181 -236 268 0
-182 217 249 183 184 0
-182 -217 -249 183 184 0
182 -184 0
182 -217 249 0
182 -183 0
182 217 -249 0
-183 -241 -273 0
-183 241 273 0
183 241 -273 0
183 -241 273 0
-184 -246 -278 0
-184 246 278 0
184 246 -278 0
184 -246 278 0
-281 0
-2 0

